p cnf 966 2481
51 -699 -700 0
-51 699 0
-51 700 0
52 -51 -701 0
-52 51 0
-52 701 0
53 -702 -4 0
-53 702 0
-53 4 0
54 -53 -703 0
-54 53 0
-54 703 0
55 -704 -705 0
-55 704 0
-55 705 0
56 -706 -7 0
-56 706 0
-56 7 0
57 -56 -9 0
-57 56 0
-57 9 0
58 -707 -55 0
-58 707 0
-58 55 0
59 -708 -10 0
-59 708 0
-59 10 0
60 -59 -3 0
-60 59 0
-60 3 0
61 -709 -58 0
-61 709 0
-61 58 0
62 -710 -9 0
-62 710 0
-62 9 0
63 -62 -13 0
-63 62 0
-63 13 0
64 -711 -61 0
-64 711 0
-64 61 0
65 -14 -700 0
-65 14 0
-65 700 0
66 -65 -15 0
-66 65 0
-66 15 0
67 -712 -64 0
-67 712 0
-67 64 0
68 -17 -713 0
-68 17 0
-68 713 0
69 -68 -714 0
-69 68 0
-69 714 0
70 -715 -67 0
-70 715 0
-70 67 0
71 -716 -10 0
-71 716 0
-71 10 0
72 -71 -13 0
-72 71 0
-72 13 0
73 -717 -70 0
-73 717 0
-73 70 0
74 -20 -19 0
-74 20 0
-74 19 0
75 -74 -21 0
-75 74 0
-75 21 0
76 -718 -73 0
-76 718 0
-76 73 0
77 -22 -716 0
-77 22 0
-77 716 0
78 -77 -23 0
-78 77 0
-78 23 0
79 -719 -76 0
-79 719 0
-79 76 0
80 -24 -720 0
-80 24 0
-80 720 0
81 -80 -11 0
-81 80 0
-81 11 0
82 -721 -79 0
-82 721 0
-82 79 0
83 -722 -723 0
-83 722 0
-83 723 0
84 -83 -724 0
-84 83 0
-84 724 0
85 -725 -82 0
-85 725 0
-85 82 0
86 -726 -727 0
-86 726 0
-86 727 0
87 -86 -11 0
-87 86 0
-87 11 0
88 -728 -85 0
-88 728 0
-88 85 0
89 -29 -729 0
-89 29 0
-89 729 0
90 -89 -727 0
-90 89 0
-90 727 0
91 -730 -88 0
-91 730 0
-91 88 0
92 -731 -1 0
-92 731 0
-92 1 0
93 -92 -31 0
-93 92 0
-93 31 0
94 -732 -91 0
-94 732 0
-94 91 0
95 -733 -734 0
-95 733 0
-95 734 0
96 -95 -735 0
-96 95 0
-96 735 0
97 -736 -94 0
-97 736 0
-97 94 0
98 -6 -2 0
-98 6 0
-98 2 0
99 -98 -31 0
-99 98 0
-99 31 0
100 -737 -97 0
-100 737 0
-100 97 0
101 -10 -703 0
-101 10 0
-101 703 0
102 -101 -738 0
-102 101 0
-102 738 0
103 -739 -100 0
-103 739 0
-103 100 0
104 -27 -740 0
-104 27 0
-104 740 0
105 -104 -35 0
-105 104 0
-105 35 0
106 -741 -103 0
-106 741 0
-106 103 0
107 -733 -28 0
-107 733 0
-107 28 0
108 -107 -2 0
-108 107 0
-108 2 0
109 -742 -106 0
-109 742 0
-109 106 0
110 -36 -19 0
-110 36 0
-110 19 0
111 -110 -740 0
-111 110 0
-111 740 0
112 -743 -109 0
-112 743 0
-112 109 0
113 -35 -710 0
-113 35 0
-113 710 0
114 -113 -744 0
-114 113 0
-114 744 0
115 -745 -112 0
-115 745 0
-115 112 0
116 -733 -7 0
-116 733 0
-116 7 0
117 -116 -708 0
-117 116 0
-117 708 0
118 -746 -115 0
-118 746 0
-118 115 0
119 -30 -747 0
-119 30 0
-119 747 0
120 -119 -699 0
-120 119 0
-120 699 0
121 -748 -118 0
-121 748 0
-121 118 0
122 -729 -19 0
-122 729 0
-122 19 0
123 -122 -699 0
-123 122 0
-123 699 0
124 -749 -121 0
-124 749 0
-124 121 0
125 -95 -708 0
-125 95 0
-125 708 0
126 -750 -124 0
-126 750 0
-126 124 0
127 -25 -6 0
-127 25 0
-127 6 0
128 -127 -37 0
-128 127 0
-128 37 0
129 -751 -126 0
-129 751 0
-129 126 0
130 -29 -747 0
-130 29 0
-130 747 0
131 -130 -38 0
-131 130 0
-131 38 0
132 -752 -129 0
-132 752 0
-132 129 0
133 -36 -25 0
-133 36 0
-133 25 0
134 -133 -708 0
-134 133 0
-134 708 0
135 -753 -132 0
-135 753 0
-135 132 0
136 -754 -27 0
-136 754 0
-136 27 0
137 -136 -755 0
-137 136 0
-137 755 0
138 -756 -135 0
-138 756 0
-138 135 0
139 -41 -1 0
-139 41 0
-139 1 0
140 -139 -720 0
-140 139 0
-140 720 0
141 -757 -138 0
-141 757 0
-141 138 0
142 -758 -33 0
-142 758 0
-142 33 0
143 -142 -26 0
-143 142 0
-143 26 0
144 -759 -141 0
-144 759 0
-144 141 0
145 -760 -16 0
-145 760 0
-145 16 0
146 -145 -38 0
-146 145 0
-146 38 0
147 -761 -144 0
-147 761 0
-147 144 0
148 -15 -702 0
-148 15 0
-148 702 0
149 -148 -26 0
-149 148 0
-149 26 0
150 -762 -147 0
-150 762 0
-150 147 0
151 -43 -42 0
-151 43 0
-151 42 0
152 -151 -35 0
-152 151 0
-152 35 0
153 -763 -150 0
-153 763 0
-153 150 0
154 -9 -7 0
-154 9 0
-154 7 0
155 -154 -727 0
-155 154 0
-155 727 0
156 -764 -153 0
-156 764 0
-156 153 0
157 -714 -5 0
-157 714 0
-157 5 0
158 -157 -765 0
-158 157 0
-158 765 0
159 -766 -156 0
-159 766 0
-159 156 0
160 -754 -703 0
-160 754 0
-160 703 0
161 -160 -708 0
-161 160 0
-161 708 0
162 -767 -159 0
-162 767 0
-162 159 0
163 -16 -702 0
-163 16 0
-163 702 0
164 -163 -708 0
-164 163 0
-164 708 0
165 -768 -162 0
-165 768 0
-165 162 0
166 -42 -33 0
-166 42 0
-166 33 0
167 -166 -15 0
-167 166 0
-167 15 0
168 -769 -165 0
-168 769 0
-168 165 0
169 -760 -710 0
-169 760 0
-169 710 0
170 -169 -735 0
-170 169 0
-170 735 0
171 -770 -168 0
-171 770 0
-171 168 0
172 -44 -771 0
-172 44 0
-172 771 0
173 -172 -772 0
-173 172 0
-173 772 0
174 -773 -171 0
-174 773 0
-174 171 0
175 -774 -27 0
-175 774 0
-175 27 0
176 -175 -17 0
-176 175 0
-176 17 0
177 -775 -174 0
-177 775 0
-177 174 0
178 -25 -13 0
-178 25 0
-178 13 0
179 -178 -35 0
-179 178 0
-179 35 0
180 -776 -177 0
-180 776 0
-180 177 0
181 -777 -735 0
-181 777 0
-181 735 0
182 -181 -31 0
-182 181 0
-182 31 0
183 -778 -180 0
-183 778 0
-183 180 0
184 -29 -779 0
-184 29 0
-184 779 0
185 -184 -700 0
-185 184 0
-185 700 0
186 -780 -183 0
-186 780 0
-186 183 0
187 -37 -710 0
-187 37 0
-187 710 0
188 -187 -699 0
-188 187 0
-188 699 0
189 -781 -186 0
-189 781 0
-189 186 0
190 -46 -733 0
-190 46 0
-190 733 0
191 -190 -724 0
-191 190 0
-191 724 0
192 -782 -189 0
-192 782 0
-192 189 0
193 -23 -771 0
-193 23 0
-193 771 0
194 -193 -47 0
-194 193 0
-194 47 0
195 -783 -192 0
-195 783 0
-195 192 0
196 -48 -42 0
-196 48 0
-196 42 0
197 -196 -18 0
-197 196 0
-197 18 0
198 -784 -195 0
-198 784 0
-198 195 0
199 -41 -729 0
-199 41 0
-199 729 0
200 -199 -2 0
-200 199 0
-200 2 0
201 -785 -198 0
-201 785 0
-201 198 0
202 -722 -19 0
-202 722 0
-202 19 0
203 -202 -731 0
-203 202 0
-203 731 0
204 -786 -201 0
-204 786 0
-204 201 0
205 -774 -15 0
-205 774 0
-205 15 0
206 -205 -708 0
-206 205 0
-206 708 0
207 -787 -204 0
-207 787 0
-207 204 0
208 -733 -8 0
-208 733 0
-208 8 0
209 -208 -33 0
-209 208 0
-209 33 0
210 -788 -207 0
-210 788 0
-210 207 0
211 -24 -16 0
-211 24 0
-211 16 0
212 -211 -11 0
-212 211 0
-212 11 0
213 -789 -210 0
-213 789 0
-213 210 0
214 -790 -32 0
-214 790 0
-214 32 0
215 -214 -723 0
-215 214 0
-215 723 0
216 -791 -213 0
-216 791 0
-216 213 0
217 -27 -722 0
-217 27 0
-217 722 0
218 -217 -49 0
-218 217 0
-218 49 0
219 -792 -216 0
-219 792 0
-219 216 0
220 -793 -18 0
-220 793 0
-220 18 0
221 -220 -32 0
-221 220 0
-221 32 0
222 -794 -219 0
-222 794 0
-222 219 0
223 -738 -23 0
-223 738 0
-223 23 0
224 -223 -31 0
-224 223 0
-224 31 0
225 -795 -222 0
-225 795 0
-225 222 0
226 -42 -7 0
-226 42 0
-226 7 0
227 -226 -50 0
-227 226 0
-227 50 0
228 -796 -225 0
-228 796 0
-228 225 0
229 -45 -738 0
-229 45 0
-229 738 0
230 -229 -33 0
-230 229 0
-230 33 0
231 -797 -228 0
-231 797 0
-231 228 0
232 -735 -6 0
-232 735 0
-232 6 0
233 -232 -35 0
-233 232 0
-233 35 0
234 -798 -231 0
-234 798 0
-234 231 0
235 -799 -729 0
-235 799 0
-235 729 0
236 -235 -29 0
-236 235 0
-236 29 0
237 -800 -234 0
-237 800 0
-237 234 0
238 -755 -37 0
-238 755 0
-238 37 0
239 -238 -26 0
-239 238 0
-239 26 0
240 -801 -237 0
-240 801 0
-240 237 0
241 -42 -703 0
-241 42 0
-241 703 0
242 -241 -32 0
-242 241 0
-242 32 0
243 -802 -240 0
-243 802 0
-243 240 0
244 -45 -44 0
-244 45 0
-244 44 0
245 -244 -23 0
-245 244 0
-245 23 0
246 -803 -243 0
-246 803 0
-246 243 0
247 -804 -4 0
-247 804 0
-247 4 0
248 -247 -18 0
-248 247 0
-248 18 0
249 -805 -246 0
-249 805 0
-249 246 0
250 -779 -713 0
-250 779 0
-250 713 0
251 -250 -708 0
-251 250 0
-251 708 0
252 -806 -249 0
-252 806 0
-252 249 0
253 -25 -20 0
-253 25 0
-253 20 0
254 -253 -35 0
-254 253 0
-254 35 0
255 -807 -252 0
-255 807 0
-255 252 0
256 -808 -710 0
-256 808 0
-256 710 0
257 -256 -50 0
-257 256 0
-257 50 0
258 -809 -255 0
-258 809 0
-258 255 0
259 -726 -747 0
-259 726 0
-259 747 0
260 -259 -744 0
-260 259 0
-260 744 0
261 -810 -258 0
-261 810 0
-261 258 0
262 -39 -19 0
-262 39 0
-262 19 0
263 -262 -772 0
-263 262 0
-263 772 0
264 -811 -261 0
-264 811 0
-264 261 0
265 -812 -12 0
-265 812 0
-265 12 0
266 -265 -21 0
-266 265 0
-266 21 0
267 -813 -264 0
-267 813 0
-267 264 0
268 -713 -702 0
-268 713 0
-268 702 0
269 -268 -714 0
-269 268 0
-269 714 0
270 -814 -267 0
-270 814 0
-270 267 0
271 -20 -13 0
-271 20 0
-271 13 0
272 -271 -23 0
-272 271 0
-272 23 0
273 -815 -270 0
-273 815 0
-273 270 0
274 -790 -29 0
-274 790 0
-274 29 0
275 -274 -772 0
-275 274 0
-275 772 0
276 -816 -273 0
-276 816 0
-276 273 0
277 -32 -760 0
-277 32 0
-277 760 0
278 -277 -731 0
-278 277 0
-278 731 0
279 -817 -276 0
-279 817 0
-279 276 0
280 -42 -716 0
-280 42 0
-280 716 0
281 -280 -29 0
-281 280 0
-281 29 0
282 -818 -279 0
-282 818 0
-282 279 0
283 -37 -23 0
-283 37 0
-283 23 0
284 -283 -701 0
-284 283 0
-284 701 0
285 -819 -282 0
-285 819 0
-285 282 0
286 -22 -1 0
-286 22 0
-286 1 0
287 -286 -15 0
-287 286 0
-287 15 0
288 -820 -285 0
-288 820 0
-288 285 0
289 -35 -5 0
-289 35 0
-289 5 0
290 -289 -699 0
-290 289 0
-290 699 0
291 -821 -288 0
-291 821 0
-291 288 0
292 -714 -700 0
-292 714 0
-292 700 0
293 -292 -731 0
-293 292 0
-293 731 0
294 -822 -291 0
-294 822 0
-294 291 0
295 -41 -39 0
-295 41 0
-295 39 0
296 -295 -823 0
-296 295 0
-296 823 0
297 -824 -294 0
-297 824 0
-297 294 0
298 -706 -825 0
-298 706 0
-298 825 0
299 -298 -26 0
-299 298 0
-299 26 0
300 -826 -297 0
-300 826 0
-300 297 0
301 -804 -723 0
-301 804 0
-301 723 0
302 -301 -727 0
-302 301 0
-302 727 0
303 -827 -300 0
-303 827 0
-303 300 0
304 -828 -829 0
-304 828 0
-304 829 0
305 -304 -34 0
-305 304 0
-305 34 0
306 -830 -303 0
-306 830 0
-306 303 0
307 -823 -831 0
-307 823 0
-307 831 0
308 -307 -727 0
-308 307 0
-308 727 0
309 -832 -306 0
-309 832 0
-309 306 0
310 -823 -703 0
-310 823 0
-310 703 0
311 -310 -701 0
-311 310 0
-311 701 0
312 -833 -309 0
-312 833 0
-312 309 0
313 -43 -39 0
-313 43 0
-313 39 0
314 -313 -34 0
-314 313 0
-314 34 0
315 -834 -312 0
-315 834 0
-315 312 0
316 -828 -32 0
-316 828 0
-316 32 0
317 -316 -1 0
-317 316 0
-317 1 0
318 -835 -315 0
-318 835 0
-318 315 0
319 -28 -713 0
-319 28 0
-319 713 0
320 -319 -716 0
-320 319 0
-320 716 0
321 -836 -318 0
-321 836 0
-321 318 0
322 -36 -22 0
-322 36 0
-322 22 0
323 -322 -760 0
-323 322 0
-323 760 0
324 -837 -321 0
-324 837 0
-324 321 0
325 -36 -17 0
-325 36 0
-325 17 0
326 -325 -18 0
-326 325 0
-326 18 0
327 -838 -324 0
-327 838 0
-327 324 0
328 -48 -10 0
-328 48 0
-328 10 0
329 -328 -839 0
-329 328 0
-329 839 0
330 -840 -327 0
-330 840 0
-330 327 0
331 -7 -771 0
-331 7 0
-331 771 0
332 -331 -723 0
-332 331 0
-332 723 0
333 -841 -330 0
-333 841 0
-333 330 0
334 -36 -735 0
-334 36 0
-334 735 0
335 -334 -731 0
-335 334 0
-335 731 0
336 -842 -333 0
-336 842 0
-336 333 0
337 -12 -702 0
-337 12 0
-337 702 0
338 -337 -699 0
-338 337 0
-338 699 0
339 -843 -336 0
-339 843 0
-339 336 0
340 -16 -7 0
-340 16 0
-340 7 0
341 -340 -15 0
-341 340 0
-341 15 0
342 -844 -339 0
-342 844 0
-342 339 0
343 -27 -4 0
-343 27 0
-343 4 0
344 -343 -2 0
-344 343 0
-344 2 0
345 -845 -342 0
-345 845 0
-345 342 0
346 -755 -13 0
-346 755 0
-346 13 0
347 -346 -31 0
-347 346 0
-347 31 0
348 -846 -345 0
-348 846 0
-348 345 0
349 -45 -16 0
-349 45 0
-349 16 0
350 -349 -774 0
-350 349 0
-350 774 0
351 -847 -348 0
-351 847 0
-351 348 0
352 -777 -703 0
-352 777 0
-352 703 0
353 -352 -823 0
-353 352 0
-353 823 0
354 -848 -351 0
-354 848 0
-354 351 0
355 -22 -8 0
-355 22 0
-355 8 0
356 -355 -45 0
-356 355 0
-356 45 0
357 -849 -354 0
-357 849 0
-357 354 0
358 -747 -771 0
-358 747 0
-358 771 0
359 -358 -30 0
-359 358 0
-359 30 0
360 -850 -357 0
-360 850 0
-360 357 0
361 -33 -723 0
-361 33 0
-361 723 0
362 -361 -765 0
-362 361 0
-362 765 0
363 -851 -360 0
-363 851 0
-363 360 0
364 -790 -740 0
-364 790 0
-364 740 0
365 -364 -50 0
-365 364 0
-365 50 0
366 -852 -363 0
-366 852 0
-366 363 0
367 -48 -35 0
-367 48 0
-367 35 0
368 -367 -2 0
-368 367 0
-368 2 0
369 -853 -366 0
-369 853 0
-369 366 0
370 -42 -713 0
-370 42 0
-370 713 0
371 -370 -12 0
-371 370 0
-371 12 0
372 -854 -369 0
-372 854 0
-372 369 0
373 -39 -36 0
-373 39 0
-373 36 0
374 -373 -731 0
-374 373 0
-374 731 0
375 -855 -372 0
-375 855 0
-375 372 0
376 -41 -12 0
-376 41 0
-376 12 0
377 -376 -740 0
-377 376 0
-377 740 0
378 -856 -375 0
-378 856 0
-378 375 0
379 -812 -22 0
-379 812 0
-379 22 0
380 -379 -36 0
-380 379 0
-380 36 0
381 -857 -378 0
-381 857 0
-381 378 0
382 -77 -734 0
-382 77 0
-382 734 0
383 -858 -381 0
-383 858 0
-383 381 0
384 -828 -710 0
-384 828 0
-384 710 0
385 -384 -738 0
-385 384 0
-385 738 0
386 -859 -383 0
-386 859 0
-386 383 0
387 -808 -703 0
-387 808 0
-387 703 0
388 -387 -714 0
-388 387 0
-388 714 0
389 -860 -386 0
-389 860 0
-389 386 0
390 -726 -18 0
-390 726 0
-390 18 0
391 -390 -765 0
-391 390 0
-391 765 0
392 -861 -389 0
-392 861 0
-392 389 0
393 -722 -12 0
-393 722 0
-393 12 0
394 -393 -726 0
-394 393 0
-394 726 0
395 -862 -392 0
-395 862 0
-395 392 0
396 -37 -32 0
-396 37 0
-396 32 0
397 -396 -700 0
-397 396 0
-397 700 0
398 -863 -395 0
-398 863 0
-398 395 0
399 -777 -10 0
-399 777 0
-399 10 0
400 -399 -26 0
-400 399 0
-400 26 0
401 -864 -398 0
-401 864 0
-401 398 0
402 -43 -771 0
-402 43 0
-402 771 0
403 -402 -38 0
-403 402 0
-403 38 0
404 -865 -401 0
-404 865 0
-404 401 0
405 -866 -48 0
-405 866 0
-405 48 0
406 -405 -26 0
-406 405 0
-406 26 0
407 -867 -404 0
-407 867 0
-407 404 0
408 -20 -5 0
-408 20 0
-408 5 0
409 -408 -701 0
-409 408 0
-409 701 0
410 -868 -407 0
-410 868 0
-410 407 0
411 -738 -699 0
-411 738 0
-411 699 0
412 -411 -26 0
-412 411 0
-412 26 0
413 -869 -410 0
-413 869 0
-413 410 0
414 -48 -747 0
-414 48 0
-414 747 0
415 -414 -744 0
-415 414 0
-415 744 0
416 -870 -413 0
-416 870 0
-416 413 0
417 -774 -779 0
-417 774 0
-417 779 0
418 -417 -1 0
-418 417 0
-418 1 0
419 -871 -416 0
-419 871 0
-419 416 0
420 -729 -771 0
-420 729 0
-420 771 0
421 -420 -11 0
-421 420 0
-421 11 0
422 -872 -419 0
-422 872 0
-422 419 0
423 -16 -703 0
-423 16 0
-423 703 0
424 -423 -740 0
-424 423 0
-424 740 0
425 -873 -422 0
-425 873 0
-425 422 0
426 -799 -7 0
-426 799 0
-426 7 0
427 -426 -34 0
-427 426 0
-427 34 0
428 -874 -425 0
-428 874 0
-428 425 0
429 -10 -9 0
-429 10 0
-429 9 0
430 -429 -50 0
-430 429 0
-430 50 0
431 -875 -428 0
-431 875 0
-431 428 0
432 -22 -713 0
-432 22 0
-432 713 0
433 -432 -708 0
-433 432 0
-433 708 0
434 -876 -431 0
-434 876 0
-434 431 0
435 -48 -735 0
-435 48 0
-435 735 0
436 -435 -38 0
-436 435 0
-436 38 0
437 -877 -434 0
-437 877 0
-437 434 0
438 -28 -702 0
-438 28 0
-438 702 0
439 -438 -38 0
-439 438 0
-439 38 0
440 -878 -437 0
-440 878 0
-440 437 0
441 -812 -747 0
-441 812 0
-441 747 0
442 -441 -740 0
-442 441 0
-442 740 0
443 -879 -440 0
-443 879 0
-443 440 0
444 -734 -723 0
-444 734 0
-444 723 0
445 -444 -31 0
-445 444 0
-445 31 0
446 -880 -443 0
-446 880 0
-446 443 0
447 -36 -29 0
-447 36 0
-447 29 0
448 -447 -735 0
-448 447 0
-448 735 0
449 -881 -446 0
-449 881 0
-449 446 0
450 -46 -39 0
-450 46 0
-450 39 0
451 -450 -23 0
-451 450 0
-451 23 0
452 -882 -449 0
-452 882 0
-452 449 0
453 -727 -760 0
-453 727 0
-453 760 0
454 -453 -47 0
-454 453 0
-454 47 0
455 -883 -452 0
-455 883 0
-455 452 0
456 -884 -37 0
-456 884 0
-456 37 0
457 -456 -839 0
-457 456 0
-457 839 0
458 -885 -455 0
-458 885 0
-458 455 0
459 -46 -17 0
-459 46 0
-459 17 0
460 -459 -699 0
-460 459 0
-460 699 0
461 -886 -458 0
-461 886 0
-461 458 0
462 -831 -747 0
-462 831 0
-462 747 0
463 -462 -720 0
-463 462 0
-463 720 0
464 -887 -461 0
-464 887 0
-464 461 0
465 -812 -6 0
-465 812 0
-465 6 0
466 -465 -740 0
-466 465 0
-466 740 0
467 -888 -464 0
-467 888 0
-467 464 0
468 -36 -8 0
-468 36 0
-468 8 0
469 -468 -30 0
-469 468 0
-469 30 0
470 -889 -467 0
-470 889 0
-470 467 0
471 -828 -729 0
-471 828 0
-471 729 0
472 -471 -866 0
-472 471 0
-472 866 0
473 -890 -470 0
-473 890 0
-473 470 0
474 -884 -41 0
-474 884 0
-474 41 0
475 -474 -731 0
-475 474 0
-475 731 0
476 -891 -473 0
-476 891 0
-476 473 0
477 -39 -700 0
-477 39 0
-477 700 0
478 -477 -727 0
-478 477 0
-478 727 0
479 -892 -476 0
-479 892 0
-479 476 0
480 -22 -747 0
-480 22 0
-480 747 0
481 -480 -2 0
-481 480 0
-481 2 0
482 -893 -479 0
-482 893 0
-482 479 0
483 -733 -771 0
-483 733 0
-483 771 0
484 -483 -30 0
-484 483 0
-484 30 0
485 -894 -482 0
-485 894 0
-485 482 0
486 -28 -726 0
-486 28 0
-486 726 0
487 -486 -839 0
-487 486 0
-487 839 0
488 -895 -485 0
-488 895 0
-488 485 0
489 -34 -733 0
-489 34 0
-489 733 0
490 -489 -23 0
-490 489 0
-490 23 0
491 -896 -488 0
-491 896 0
-491 488 0
492 -32 -7 0
-492 32 0
-492 7 0
493 -492 -2 0
-493 492 0
-493 2 0
494 -897 -491 0
-494 897 0
-494 491 0
495 -43 -32 0
-495 43 0
-495 32 0
496 -495 -13 0
-496 495 0
-496 13 0
497 -898 -494 0
-497 898 0
-497 494 0
498 -5 -771 0
-498 5 0
-498 771 0
499 -498 -793 0
-499 498 0
-499 793 0
500 -899 -497 0
-500 899 0
-500 497 0
501 -12 -714 0
-501 12 0
-501 714 0
502 -501 -724 0
-502 501 0
-502 724 0
503 -900 -500 0
-503 900 0
-503 500 0
504 -12 -1 0
-504 12 0
-504 1 0
505 -504 -38 0
-505 504 0
-505 38 0
506 -901 -503 0
-506 901 0
-506 503 0
507 -703 -702 0
-507 703 0
-507 702 0
508 -507 -760 0
-508 507 0
-508 760 0
509 -902 -506 0
-509 902 0
-509 506 0
510 -790 -12 0
-510 790 0
-510 12 0
511 -510 -40 0
-511 510 0
-511 40 0
512 -903 -509 0
-512 903 0
-512 509 0
513 -17 -710 0
-513 17 0
-513 710 0
514 -513 -839 0
-514 513 0
-514 839 0
515 -904 -512 0
-515 904 0
-515 512 0
516 -13 -702 0
-516 13 0
-516 702 0
517 -516 -735 0
-517 516 0
-517 735 0
518 -905 -515 0
-518 905 0
-518 515 0
519 -729 -760 0
-519 729 0
-519 760 0
520 -519 -738 0
-520 519 0
-520 738 0
521 -906 -518 0
-521 906 0
-521 518 0
522 -37 -27 0
-522 37 0
-522 27 0
523 -522 -744 0
-523 522 0
-523 744 0
524 -907 -521 0
-524 907 0
-524 521 0
525 -20 -771 0
-525 20 0
-525 771 0
526 -525 -11 0
-526 525 0
-526 11 0
527 -908 -524 0
-527 908 0
-527 524 0
528 -49 -793 0
-528 49 0
-528 793 0
529 -528 -701 0
-529 528 0
-529 701 0
530 -909 -527 0
-530 909 0
-530 527 0
531 -163 -765 0
-531 163 0
-531 765 0
532 -910 -530 0
-532 910 0
-532 530 0
533 -16 -13 0
-533 16 0
-533 13 0
534 -533 -724 0
-534 533 0
-534 724 0
535 -911 -532 0
-535 911 0
-535 532 0
536 -33 -729 0
-536 33 0
-536 729 0
537 -536 -823 0
-537 536 0
-537 823 0
538 -912 -535 0
-538 912 0
-538 535 0
539 -713 -4 0
-539 713 0
-539 4 0
540 -539 -731 0
-540 539 0
-540 731 0
541 -913 -538 0
-541 913 0
-541 538 0
542 -729 -710 0
-542 729 0
-542 710 0
543 -542 -777 0
-543 542 0
-543 777 0
544 -914 -541 0
-544 914 0
-544 541 0
545 -726 -829 0
-545 726 0
-545 829 0
546 -545 -45 0
-546 545 0
-546 45 0
547 -915 -544 0
-547 915 0
-547 544 0
548 -804 -43 0
-548 804 0
-548 43 0
549 -548 -738 0
-549 548 0
-549 738 0
550 -916 -547 0
-550 916 0
-550 547 0
551 -36 -4 0
-551 36 0
-551 4 0
552 -551 -740 0
-552 551 0
-552 740 0
553 -917 -550 0
-553 917 0
-553 550 0
554 -41 -29 0
-554 41 0
-554 29 0
555 -554 -701 0
-555 554 0
-555 701 0
556 -918 -553 0
-556 918 0
-556 553 0
557 -884 -812 0
-557 884 0
-557 812 0
558 -557 -727 0
-558 557 0
-558 727 0
559 -919 -556 0
-559 919 0
-559 556 0
560 -33 -703 0
-560 33 0
-560 703 0
561 -560 -24 0
-561 560 0
-561 24 0
562 -920 -559 0
-562 920 0
-562 559 0
563 -48 -729 0
-563 48 0
-563 729 0
564 -563 -708 0
-564 563 0
-564 708 0
565 -921 -562 0
-565 921 0
-565 562 0
566 -793 -702 0
-566 793 0
-566 702 0
567 -566 -1 0
-567 566 0
-567 1 0
568 -922 -565 0
-568 922 0
-568 565 0
569 -812 -755 0
-569 812 0
-569 755 0
570 -569 -31 0
-570 569 0
-570 31 0
571 -923 -568 0
-571 923 0
-571 568 0
572 -21 -703 0
-572 21 0
-572 703 0
573 -572 -708 0
-573 572 0
-573 708 0
574 -924 -571 0
-574 924 0
-574 571 0
575 -804 -29 0
-575 804 0
-575 29 0
576 -575 -733 0
-576 575 0
-576 733 0
577 -925 -574 0
-577 925 0
-577 574 0
578 -516 -2 0
-578 516 0
-578 2 0
579 -926 -577 0
-579 926 0
-579 577 0
580 -30 -16 0
-580 30 0
-580 16 0
581 -580 -727 0
-581 580 0
-581 727 0
582 -927 -579 0
-582 927 0
-582 579 0
583 -38 -747 0
-583 38 0
-583 747 0
584 -583 -23 0
-584 583 0
-584 23 0
585 -928 -582 0
-585 928 0
-585 582 0
586 -22 -825 0
-586 22 0
-586 825 0
587 -586 -1 0
-587 586 0
-587 1 0
588 -929 -585 0
-588 929 0
-588 585 0
589 -723 -702 0
-589 723 0
-589 702 0
590 -589 -866 0
-590 589 0
-590 866 0
591 -930 -588 0
-591 930 0
-591 588 0
592 -426 -3 0
-592 426 0
-592 3 0
593 -931 -591 0
-593 931 0
-593 591 0
594 -37 -831 0
-594 37 0
-594 831 0
595 -594 -15 0
-595 594 0
-595 15 0
596 -932 -593 0
-596 932 0
-596 593 0
597 -26 -710 0
-597 26 0
-597 710 0
598 -597 -11 0
-598 597 0
-598 11 0
599 -933 -596 0
-599 933 0
-599 596 0
600 -754 -779 0
-600 754 0
-600 779 0
601 -600 -734 0
-601 600 0
-601 734 0
602 -934 -599 0
-602 934 0
-602 599 0
603 -777 -34 0
-603 777 0
-603 34 0
604 -603 -701 0
-604 603 0
-604 701 0
605 -935 -602 0
-605 935 0
-605 602 0
606 -799 -42 0
-606 799 0
-606 42 0
607 -606 -758 0
-607 606 0
-607 758 0
608 -936 -605 0
-608 936 0
-608 605 0
609 -765 -726 0
-609 765 0
-609 726 0
610 -609 -3 0
-610 609 0
-610 3 0
611 -937 -608 0
-611 937 0
-611 608 0
612 -36 -713 0
-612 36 0
-612 713 0
613 -612 -2 0
-613 612 0
-613 2 0
614 -938 -611 0
-614 938 0
-614 611 0
615 -703 -699 0
-615 703 0
-615 699 0
616 -615 -727 0
-616 615 0
-616 727 0
617 -939 -614 0
-617 939 0
-617 614 0
618 -733 -22 0
-618 733 0
-618 22 0
619 -618 -35 0
-619 618 0
-619 35 0
620 -940 -617 0
-620 940 0
-620 617 0
621 -43 -713 0
-621 43 0
-621 713 0
622 -621 -779 0
-622 621 0
-622 779 0
623 -941 -620 0
-623 941 0
-623 620 0
624 -710 -771 0
-624 710 0
-624 771 0
625 -624 -726 0
-625 624 0
-625 726 0
626 -942 -623 0
-626 942 0
-626 623 0
627 -829 -16 0
-627 829 0
-627 16 0
628 -627 -11 0
-628 627 0
-628 11 0
629 -943 -626 0
-629 943 0
-629 626 0
630 -32 -771 0
-630 32 0
-630 771 0
631 -630 -727 0
-631 630 0
-631 727 0
632 -944 -629 0
-632 944 0
-632 629 0
633 -812 -738 0
-633 812 0
-633 738 0
634 -633 -13 0
-634 633 0
-634 13 0
635 -945 -632 0
-635 945 0
-635 632 0
636 -831 -18 0
-636 831 0
-636 18 0
637 -636 -32 0
-637 636 0
-637 32 0
638 -946 -635 0
-638 946 0
-638 635 0
639 -25 -831 0
-639 25 0
-639 831 0
640 -639 -39 0
-640 639 0
-640 39 0
641 -947 -638 0
-641 947 0
-641 638 0
642 -20 -723 0
-642 20 0
-642 723 0
643 -642 -23 0
-643 642 0
-643 23 0
644 -948 -641 0
-644 948 0
-644 641 0
645 -828 -36 0
-645 828 0
-645 36 0
646 -645 -21 0
-646 645 0
-646 21 0
647 -949 -644 0
-647 949 0
-647 644 0
648 -735 -710 0
-648 735 0
-648 710 0
649 -648 -701 0
-649 648 0
-649 701 0
650 -950 -647 0
-650 950 0
-650 647 0
651 -45 -26 0
-651 45 0
-651 26 0
652 -651 -23 0
-652 651 0
-652 23 0
653 -951 -650 0
-653 951 0
-653 650 0
654 -43 -7 0
-654 43 0
-654 7 0
655 -654 -50 0
-655 654 0
-655 50 0
656 -952 -653 0
-656 952 0
-656 653 0
657 -27 -22 0
-657 27 0
-657 22 0
658 -657 -37 0
-658 657 0
-658 37 0
659 -953 -656 0
-659 953 0
-659 656 0
660 -804 -7 0
-660 804 0
-660 7 0
661 -660 -15 0
-661 660 0
-661 15 0
662 -954 -659 0
-662 954 0
-662 659 0
663 -779 -710 0
-663 779 0
-663 710 0
664 -663 -21 0
-664 663 0
-664 21 0
665 -955 -662 0
-665 955 0
-665 662 0
666 -35 -15 0
-666 35 0
-666 15 0
667 -666 -26 0
-667 666 0
-667 26 0
668 -956 -665 0
-668 956 0
-668 665 0
669 -774 -29 0
-669 774 0
-669 29 0
670 -669 -50 0
-670 669 0
-670 50 0
671 -957 -668 0
-671 957 0
-671 668 0
672 -10 -8 0
-672 10 0
-672 8 0
673 -672 -35 0
-673 672 0
-673 35 0
674 -958 -671 0
-674 958 0
-674 671 0
675 -754 -731 0
-675 754 0
-675 731 0
676 -675 -839 0
-676 675 0
-676 839 0
677 -959 -674 0
-677 959 0
-677 674 0
678 -34 -6 0
-678 34 0
-678 6 0
679 -678 -733 0
-679 678 0
-679 733 0
680 -960 -677 0
-680 960 0
-680 677 0
681 -42 -755 0
-681 42 0
-681 755 0
682 -681 -38 0
-682 681 0
-682 38 0
683 -961 -680 0
-683 961 0
-683 680 0
684 -41 -714 0
-684 41 0
-684 714 0
685 -684 -839 0
-685 684 0
-685 839 0
686 -962 -683 0
-686 962 0
-686 683 0
687 -22 -19 0
-687 22 0
-687 19 0
688 -687 -50 0
-688 687 0
-688 50 0
689 -963 -686 0
-689 963 0
-689 686 0
690 -49 -706 0
-690 49 0
-690 706 0
691 -690 -765 0
-691 690 0
-691 765 0
692 -964 -689 0
-692 964 0
-692 689 0
693 -774 -25 0
-693 774 0
-693 25 0
694 -693 -14 0
-694 693 0
-694 14 0
695 -965 -692 0
-695 965 0
-695 692 0
696 -710 -10 0
-696 710 0
-696 10 0
697 -696 -14 0
-697 696 0
-697 14 0
698 -966 -695 0
-698 966 0
-698 695 0
-699 -2 0
699 2 0
-700 -1 0
700 1 0
-701 -3 0
701 3 0
-702 -5 0
702 5 0
-703 -6 0
703 6 0
-704 -54 0
704 54 0
-705 -52 0
705 52 0
-706 -8 0
706 8 0
-707 -57 0
707 57 0
-708 -11 0
708 11 0
-709 -60 0
709 60 0
-710 -12 0
710 12 0
-711 -63 0
711 63 0
-712 -66 0
712 66 0
-713 -16 0
713 16 0
-714 -9 0
714 9 0
-715 -69 0
715 69 0
-716 -18 0
716 18 0
-717 -72 0
717 72 0
-718 -75 0
718 75 0
-719 -78 0
719 78 0
-720 -15 0
720 15 0
-721 -81 0
721 81 0
-722 -25 0
722 25 0
-723 -13 0
723 13 0
-724 -26 0
724 26 0
-725 -84 0
725 84 0
-726 -27 0
726 27 0
-727 -23 0
727 23 0
-728 -87 0
728 87 0
-729 -28 0
729 28 0
-730 -90 0
730 90 0
-731 -30 0
731 30 0
-732 -93 0
732 93 0
-733 -32 0
733 32 0
-734 -14 0
734 14 0
-735 -33 0
735 33 0
-736 -96 0
736 96 0
-737 -99 0
737 99 0
-738 -34 0
738 34 0
-739 -102 0
739 102 0
-740 -21 0
740 21 0
-741 -105 0
741 105 0
-742 -108 0
742 108 0
-743 -111 0
743 111 0
-744 -24 0
744 24 0
-745 -114 0
745 114 0
-746 -117 0
746 117 0
-747 -10 0
747 10 0
-748 -120 0
748 120 0
-749 -123 0
749 123 0
-750 -125 0
750 125 0
-751 -128 0
751 128 0
-752 -131 0
752 131 0
-753 -134 0
753 134 0
-754 -39 0
754 39 0
-755 -40 0
755 40 0
-756 -137 0
756 137 0
-757 -140 0
757 140 0
-758 -37 0
758 37 0
-759 -143 0
759 143 0
-760 -17 0
760 17 0
-761 -146 0
761 146 0
-762 -149 0
762 149 0
-763 -152 0
763 152 0
-764 -155 0
764 155 0
-765 -35 0
765 35 0
-766 -158 0
766 158 0
-767 -161 0
767 161 0
-768 -164 0
768 164 0
-769 -167 0
769 167 0
-770 -170 0
770 170 0
-771 -4 0
771 4 0
-772 -31 0
772 31 0
-773 -173 0
773 173 0
-774 -36 0
774 36 0
-775 -176 0
775 176 0
-776 -179 0
776 179 0
-777 -45 0
777 45 0
-778 -182 0
778 182 0
-779 -20 0
779 20 0
-780 -185 0
780 185 0
-781 -188 0
781 188 0
-782 -191 0
782 191 0
-783 -194 0
783 194 0
-784 -197 0
784 197 0
-785 -200 0
785 200 0
-786 -203 0
786 203 0
-787 -206 0
787 206 0
-788 -209 0
788 209 0
-789 -212 0
789 212 0
-790 -41 0
790 41 0
-791 -215 0
791 215 0
-792 -218 0
792 218 0
-793 -48 0
793 48 0
-794 -221 0
794 221 0
-795 -224 0
795 224 0
-796 -227 0
796 227 0
-797 -230 0
797 230 0
-798 -233 0
798 233 0
-799 -44 0
799 44 0
-800 -236 0
800 236 0
-801 -239 0
801 239 0
-802 -242 0
802 242 0
-803 -245 0
803 245 0
-804 -49 0
804 49 0
-805 -248 0
805 248 0
-806 -251 0
806 251 0
-807 -254 0
807 254 0
-808 -29 0
808 29 0
-809 -257 0
809 257 0
-810 -260 0
810 260 0
-811 -263 0
811 263 0
-812 -42 0
812 42 0
-813 -266 0
813 266 0
-814 -269 0
814 269 0
-815 -272 0
815 272 0
-816 -275 0
816 275 0
-817 -278 0
817 278 0
-818 -281 0
818 281 0
-819 -284 0
819 284 0
-820 -287 0
820 287 0
-821 -290 0
821 290 0
-822 -293 0
822 293 0
-823 -38 0
823 38 0
-824 -296 0
824 296 0
-825 -7 0
825 7 0
-826 -299 0
826 299 0
-827 -302 0
827 302 0
-828 -46 0
828 46 0
-829 -19 0
829 19 0
-830 -305 0
830 305 0
-831 -22 0
831 22 0
-832 -308 0
832 308 0
-833 -311 0
833 311 0
-834 -314 0
834 314 0
-835 -317 0
835 317 0
-836 -320 0
836 320 0
-837 -323 0
837 323 0
-838 -326 0
838 326 0
-839 -47 0
839 47 0
-840 -329 0
840 329 0
-841 -332 0
841 332 0
-842 -335 0
842 335 0
-843 -338 0
843 338 0
-844 -341 0
844 341 0
-845 -344 0
845 344 0
-846 -347 0
846 347 0
-847 -350 0
847 350 0
-848 -353 0
848 353 0
-849 -356 0
849 356 0
-850 -359 0
850 359 0
-851 -362 0
851 362 0
-852 -365 0
852 365 0
-853 -368 0
853 368 0
-854 -371 0
854 371 0
-855 -374 0
855 374 0
-856 -377 0
856 377 0
-857 -380 0
857 380 0
-858 -382 0
858 382 0
-859 -385 0
859 385 0
-860 -388 0
860 388 0
-861 -391 0
861 391 0
-862 -394 0
862 394 0
-863 -397 0
863 397 0
-864 -400 0
864 400 0
-865 -403 0
865 403 0
-866 -50 0
866 50 0
-867 -406 0
867 406 0
-868 -409 0
868 409 0
-869 -412 0
869 412 0
-870 -415 0
870 415 0
-871 -418 0
871 418 0
-872 -421 0
872 421 0
-873 -424 0
873 424 0
-874 -427 0
874 427 0
-875 -430 0
875 430 0
-876 -433 0
876 433 0
-877 -436 0
877 436 0
-878 -439 0
878 439 0
-879 -442 0
879 442 0
-880 -445 0
880 445 0
-881 -448 0
881 448 0
-882 -451 0
882 451 0
-883 -454 0
883 454 0
-884 -43 0
884 43 0
-885 -457 0
885 457 0
-886 -460 0
886 460 0
-887 -463 0
887 463 0
-888 -466 0
888 466 0
-889 -469 0
889 469 0
-890 -472 0
890 472 0
-891 -475 0
891 475 0
-892 -478 0
892 478 0
-893 -481 0
893 481 0
-894 -484 0
894 484 0
-895 -487 0
895 487 0
-896 -490 0
896 490 0
-897 -493 0
897 493 0
-898 -496 0
898 496 0
-899 -499 0
899 499 0
-900 -502 0
900 502 0
-901 -505 0
901 505 0
-902 -508 0
902 508 0
-903 -511 0
903 511 0
-904 -514 0
904 514 0
-905 -517 0
905 517 0
-906 -520 0
906 520 0
-907 -523 0
907 523 0
-908 -526 0
908 526 0
-909 -529 0
909 529 0
-910 -531 0
910 531 0
-911 -534 0
911 534 0
-912 -537 0
912 537 0
-913 -540 0
913 540 0
-914 -543 0
914 543 0
-915 -546 0
915 546 0
-916 -549 0
916 549 0
-917 -552 0
917 552 0
-918 -555 0
918 555 0
-919 -558 0
919 558 0
-920 -561 0
920 561 0
-921 -564 0
921 564 0
-922 -567 0
922 567 0
-923 -570 0
923 570 0
-924 -573 0
924 573 0
-925 -576 0
925 576 0
-926 -578 0
926 578 0
-927 -581 0
927 581 0
-928 -584 0
928 584 0
-929 -587 0
929 587 0
-930 -590 0
930 590 0
-931 -592 0
931 592 0
-932 -595 0
932 595 0
-933 -598 0
933 598 0
-934 -601 0
934 601 0
-935 -604 0
935 604 0
-936 -607 0
936 607 0
-937 -610 0
937 610 0
-938 -613 0
938 613 0
-939 -616 0
939 616 0
-940 -619 0
940 619 0
-941 -622 0
941 622 0
-942 -625 0
942 625 0
-943 -628 0
943 628 0
-944 -631 0
944 631 0
-945 -634 0
945 634 0
-946 -637 0
946 637 0
-947 -640 0
947 640 0
-948 -643 0
948 643 0
-949 -646 0
949 646 0
-950 -649 0
950 649 0
-951 -652 0
951 652 0
-952 -655 0
952 655 0
-953 -658 0
953 658 0
-954 -661 0
954 661 0
-955 -664 0
955 664 0
-956 -667 0
956 667 0
-957 -670 0
957 670 0
-958 -673 0
958 673 0
-959 -676 0
959 676 0
-960 -679 0
960 679 0
-961 -682 0
961 682 0
-962 -685 0
962 685 0
-963 -688 0
963 688 0
-964 -691 0
964 691 0
-965 -694 0
965 694 0
-966 -697 0
966 697 0
698 0
